p edge 250 3072
e 0 15
e 0 16
e 0 51
e 0 65
e 0 72
e 0 78
e 0 81
e 0 96
e 0 105
e 0 137
e 0 163
e 0 177
e 0 196
e 0 218
e 0 223
e 0 226
e 0 234
e 0 249
e 1 2
e 1 7
e 1 14
e 1 30
e 1 31
e 1 41
e 1 57
e 1 58
e 1 59
e 1 60
e 1 61
e 1 63
e 1 66
e 1 68
e 1 83
e 1 84
e 1 90
e 1 91
e 1 104
e 1 115
e 1 117
e 1 122
e 1 130
e 1 177
e 1 179
e 1 201
e 1 204
e 1 226
e 1 241
e 1 246
e 2 18
e 2 21
e 2 27
e 2 35
e 2 38
e 2 47
e 2 52
e 2 58
e 2 82
e 2 89
e 2 91
e 2 92
e 2 98
e 2 107
e 2 114
e 2 116
e 2 118
e 2 121
e 2 128
e 2 130
e 2 144
e 2 147
e 2 166
e 2 180
e 2 195
e 2 201
e 2 206
e 2 223
e 2 224
e 2 226
e 2 231
e 2 233
e 2 249
e 3 15
e 3 27
e 3 33
e 3 57
e 3 68
e 3 84
e 3 86
e 3 88
e 3 106
e 3 110
e 3 132
e 3 139
e 3 146
e 3 152
e 3 166
e 3 177
e 3 181
e 3 198
e 3 200
e 3 203
e 3 221
e 3 222
e 3 230
e 3 233
e 4 8
e 4 19
e 4 21
e 4 31
e 4 42
e 4 51
e 4 53
e 4 81
e 4 83
e 4 95
e 4 98
e 4 116
e 4 120
e 4 144
e 4 155
e 4 158
e 4 174
e 4 178
e 4 182
e 4 187
e 4 196
e 4 199
e 4 211
e 4 218
e 4 219
e 4 229
e 4 234
e 4 240
e 4 247
e 5 7
e 5 10
e 5 11
e 5 15
e 5 19
e 5 22
e 5 24
e 5 31
e 5 49
e 5 62
e 5 78
e 5 80
e 5 91
e 5 95
e 5 116
e 5 117
e 5 151
e 5 172
e 5 191
e 5 196
e 5 214
e 5 221
e 5 227
e 6 7
e 6 21
e 6 27
e 6 34
e 6 44
e 6 49
e 6 65
e 6 85
e 6 115
e 6 118
e 6 131
e 6 132
e 6 134
e 6 140
e 6 150
e 6 186
e 6 198
e 6 201
e 6 209
e 6 211
e 6 213
e 7 10
e 7 25
e 7 33
e 7 42
e 7 60
e 7 67
e 7 79
e 7 80
e 7 84
e 7 87
e 7 101
e 7 109
e 7 134
e 7 140
e 7 142
e 7 165
e 7 171
e 7 178
e 7 188
e 7 193
e 7 201
e 7 203
e 7 205
e 7 210
e 7 211
e 7 220
e 8 19
e 8 26
e 8 33
e 8 42
e 8 50
e 8 63
e 8 70
e 8 87
e 8 88
e 8 104
e 8 115
e 8 136
e 8 150
e 8 155
e 8 169
e 8 181
e 8 184
e 8 189
e 8 206
e 8 208
e 8 209
e 8 210
e 8 219
e 8 247
e 9 19
e 9 22
e 9 24
e 9 39
e 9 46
e 9 48
e 9 100
e 9 103
e 9 124
e 9 135
e 9 143
e 9 147
e 9 153
e 9 156
e 9 174
e 9 182
e 9 191
e 9 200
e 9 209
e 9 212
e 9 218
e 9 233
e 10 21
e 10 23
e 10 37
e 10 48
e 10 51
e 10 59
e 10 70
e 10 77
e 10 83
e 10 101
e 10 102
e 10 110
e 10 116
e 10 123
e 10 143
e 10 144
e 10 154
e 10 174
e 10 197
e 10 203
e 10 230
e 10 237
e 10 243
e 10 245
e 10 246
e 11 12
e 11 47
e 11 65
e 11 74
e 11 79
e 11 96
e 11 106
e 11 120
e 11 127
e 11 132
e 11 144
e 11 146
e 11 155
e 11 190
e 11 191
e 11 210
e 11 223
e 11 224
e 11 232
e 11 239
e 11 246
e 12 22
e 12 25
e 12 27
e 12 36
e 12 37
e 12 45
e 12 55
e 12 56
e 12 66
e 12 76
e 12 86
e 12 111
e 12 133
e 12 134
e 12 141
e 12 144
e 12 159
e 12 167
e 12 170
e 12 177
e 12 180
e 12 189
e 12 193
e 12 199
e 12 201
e 12 206
e 12 208
e 12 237
e 12 249
e 13 36
e 13 44
e 13 55
e 13 59
e 13 60
e 13 70
e 13 78
e 13 93
e 13 102
e 13 118
e 13 125
e 13 138
e 13 166
e 13 172
e 13 181
e 13 190
e 13 200
e 13 218
e 13 225
e 14 57
e 14 64
e 14 70
e 14 81
e 14 89
e 14 90
e 14 117
e 14 135
e 14 155
e 14 169
e 14 172
e 14 181
e 14 206
e 15 36
e 15 49
e 15 55
e 15 70
e 15 77
e 15 80
e 15 96
e 15 98
e 15 114
e 15 146
e 15 159
e 15 164
e 15 179
e 15 185
e 15 195
e 15 203
e 15 204
e 15 207
e 15 209
e 15 225
e 15 240
e 15 245
e 15 249
e 16 26
e 16 30
e 16 38
e 16 43
e 16 57
e 16 58
e 16 64
e 16 80
e 16 82
e 16 91
e 16 105
e 16 123
e 16 129
e 16 135
e 16 142
e 16 143
e 16 148
e 16 161
e 16 163
e 16 174
e 16 176
e 16 186
e 16 190
e 16 194
e 16 212
e 16 224
e 16 232
e 16 237
e 17 18
e 17 20
e 17 24
e 17 41
e 17 44
e 17 47
e 17 48
e 17 56
e 17 57
e 17 75
e 17 88
e 17 116
e 17 128
e 17 147
e 17 148
e 17 156
e 17 157
e 17 165
e 17 166
e 17 176
e 17 180
e 17 192
e 17 195
e 17 198
e 17 229
e 17 240
e 18 22
e 18 25
e 18 28
e 18 46
e 18 56
e 18 62
e 18 69
e 18 73
e 18 90
e 18 94
e 18 106
e 18 148
e 18 154
e 18 157
e 18 178
e 18 181
e 18 184
e 18 214
e 18 229
e 18 240
e 18 244
e 19 26
e 19 29
e 19 30
e 19 40
e 19 52
e 19 61
e 19 67
e 19 79
e 19 87
e 19 92
e 19 105
e 19 113
e 19 118
e 19 142
e 19 146
e 19 151
e 19 161
e 19 165
e 19 176
e 19 178
e 19 179
e 19 181
e 19 184
e 19 202
e 19 208
e 19 209
e 19 225
e 19 237
e 19 239
e 19 244
e 19 245
e 20 27
e 20 29
e 20 30
e 20 36
e 20 41
e 20 46
e 20 56
e 20 61
e 20 75
e 20 92
e 20 95
e 20 99
e 20 103
e 20 110
e 20 123
e 20 138
e 20 143
e 20 144
e 20 151
e 20 152
e 20 153
e 20 166
e 20 172
e 20 173
e 20 175
e 20 180
e 20 181
e 20 248
e 21 45
e 21 48
e 21 51
e 21 89
e 21 95
e 21 101
e 21 121
e 21 147
e 21 160
e 21 164
e 21 165
e 21 170
e 21 171
e 21 192
e 21 209
e 21 232
e 21 233
e 21 235
e 21 236
e 21 248
e 22 27
e 22 39
e 22 48
e 22 50
e 22 56
e 22 66
e 22 74
e 22 76
e 22 81
e 22 82
e 22 84
e 22 86
e 22 89
e 22 121
e 22 132
e 22 150
e 22 181
e 22 186
e 22 212
e 22 213
e 22 232
e 23 28
e 23 67
e 23 77
e 23 88
e 23 104
e 23 119
e 23 129
e 23 157
e 23 171
e 23 192
e 23 195
e 23 200
e 23 202
e 23 204
e 23 205
e 23 213
e 23 222
e 23 237
e 23 246
e 24 37
e 24 44
e 24 48
e 24 60
e 24 69
e 24 85
e 24 130
e 24 134
e 24 135
e 24 148
e 24 167
e 24 171
e 24 209
e 24 211
e 24 212
e 24 231
e 24 233
e 24 235
e 24 246
e 25 33
e 25 60
e 25 62
e 25 71
e 25 81
e 25 101
e 25 107
e 25 127
e 25 144
e 25 152
e 25 155
e 25 158
e 25 187
e 25 195
e 25 199
e 25 217
e 25 225
e 25 229
e 25 239
e 25 245
e 26 48
e 26 50
e 26 53
e 26 81
e 26 84
e 26 103
e 26 109
e 26 126
e 26 138
e 26 157
e 26 173
e 26 174
e 26 180
e 26 182
e 26 186
e 26 187
e 26 195
e 26 209
e 26 212
e 26 226
e 27 29
e 27 54
e 27 57
e 27 64
e 27 65
e 27 68
e 27 71
e 27 77
e 27 88
e 27 89
e 27 97
e 27 99
e 27 103
e 27 119
e 27 124
e 27 131
e 27 143
e 27 146
e 27 150
e 27 183
e 27 192
e 27 207
e 27 211
e 27 217
e 27 220
e 27 242
e 27 248
e 28 32
e 28 61
e 28 69
e 28 89
e 28 91
e 28 137
e 28 140
e 28 143
e 28 162
e 28 173
e 28 178
e 28 191
e 28 196
e 28 213
e 29 33
e 29 61
e 29 64
e 29 72
e 29 82
e 29 88
e 29 103
e 29 107
e 29 110
e 29 118
e 29 127
e 29 130
e 29 135
e 29 141
e 29 143
e 29 144
e 29 162
e 29 167
e 29 177
e 29 201
e 29 209
e 29 218
e 29 219
e 29 223
e 29 229
e 29 232
e 29 242
e 29 243
e 29 249
e 30 49
e 30 52
e 30 63
e 30 91
e 30 94
e 30 128
e 30 136
e 30 140
e 30 145
e 30 147
e 30 155
e 30 158
e 30 171
e 30 178
e 30 180
e 30 189
e 30 204
e 30 208
e 30 209
e 30 219
e 30 238
e 30 239
e 31 34
e 31 37
e 31 38
e 31 47
e 31 65
e 31 69
e 31 70
e 31 74
e 31 80
e 31 81
e 31 89
e 31 95
e 31 105
e 31 114
e 31 134
e 31 140
e 31 154
e 31 156
e 31 170
e 31 177
e 31 193
e 31 194
e 31 217
e 31 227
e 32 44
e 32 45
e 32 66
e 32 87
e 32 91
e 32 100
e 32 106
e 32 113
e 32 122
e 32 124
e 32 147
e 32 160
e 32 170
e 32 188
e 32 194
e 32 217
e 32 233
e 32 242
e 32 244
e 33 34
e 33 37
e 33 39
e 33 40
e 33 42
e 33 61
e 33 63
e 33 80
e 33 85
e 33 91
e 33 96
e 33 101
e 33 124
e 33 146
e 33 153
e 33 173
e 33 178
e 33 186
e 33 193
e 33 195
e 33 209
e 33 221
e 33 222
e 33 232
e 33 249
e 34 37
e 34 43
e 34 52
e 34 63
e 34 74
e 34 80
e 34 84
e 34 89
e 34 96
e 34 100
e 34 104
e 34 106
e 34 117
e 34 120
e 34 125
e 34 126
e 34 127
e 34 128
e 34 147
e 34 152
e 34 155
e 34 166
e 34 179
e 34 204
e 34 208
e 34 220
e 34 223
e 34 229
e 35 50
e 35 51
e 35 55
e 35 66
e 35 68
e 35 87
e 35 88
e 35 91
e 35 103
e 35 108
e 35 129
e 35 133
e 35 141
e 35 163
e 35 170
e 35 189
e 35 192
e 35 199
e 35 209
e 35 211
e 35 221
e 35 222
e 35 231
e 35 237
e 35 238
e 35 239
e 35 249
e 36 44
e 36 45
e 36 54
e 36 55
e 36 56
e 36 76
e 36 86
e 36 91
e 36 92
e 36 95
e 36 116
e 36 121
e 36 133
e 36 139
e 36 161
e 36 177
e 36 183
e 36 184
e 36 196
e 36 202
e 36 209
e 36 210
e 36 212
e 36 219
e 36 224
e 36 234
e 36 243
e 36 248
e 37 61
e 37 64
e 37 77
e 37 83
e 37 91
e 37 105
e 37 108
e 37 114
e 37 116
e 37 120
e 37 144
e 37 170
e 37 177
e 37 187
e 37 190
e 37 202
e 37 203
e 37 209
e 37 216
e 37 228
e 37 238
e 38 40
e 38 48
e 38 54
e 38 61
e 38 81
e 38 83
e 38 92
e 38 94
e 38 113
e 38 132
e 38 142
e 38 150
e 38 154
e 38 155
e 38 156
e 38 175
e 38 179
e 38 182
e 38 195
e 38 201
e 38 210
e 38 212
e 38 224
e 38 230
e 38 234
e 38 238
e 39 52
e 39 57
e 39 60
e 39 61
e 39 67
e 39 70
e 39 71
e 39 80
e 39 99
e 39 112
e 39 119
e 39 134
e 39 138
e 39 142
e 39 144
e 39 162
e 39 183
e 39 184
e 39 187
e 39 205
e 39 210
e 39 222
e 39 229
e 39 234
e 39 235
e 39 244
e 40 41
e 40 56
e 40 68
e 40 71
e 40 74
e 40 80
e 40 89
e 40 90
e 40 96
e 40 115
e 40 124
e 40 133
e 40 149
e 40 165
e 40 166
e 40 176
e 40 202
e 40 238
e 41 56
e 41 67
e 41 68
e 41 110
e 41 121
e 41 152
e 41 156
e 41 194
e 41 200
e 41 208
e 41 209
e 41 211
e 41 224
e 41 230
e 41 241
e 41 247
e 42 58
e 42 65
e 42 96
e 42 106
e 42 124
e 42 129
e 42 140
e 42 175
e 42 180
e 42 183
e 42 189
e 42 200
e 42 207
e 42 215
e 42 230
e 42 235
e 42 242
e 43 58
e 43 60
e 43 74
e 43 83
e 43 90
e 43 100
e 43 106
e 43 109
e 43 110
e 43 114
e 43 122
e 43 155
e 43 175
e 43 177
e 43 188
e 43 207
e 43 209
e 43 212
e 43 217
e 43 228
e 43 236
e 43 246
e 44 49
e 44 55
e 44 60
e 44 61
e 44 65
e 44 73
e 44 78
e 44 88
e 44 89
e 44 96
e 44 108
e 44 109
e 44 110
e 44 126
e 44 127
e 44 138
e 44 143
e 44 146
e 44 154
e 44 158
e 44 159
e 44 167
e 44 174
e 44 188
e 44 211
e 44 217
e 44 226
e 44 242
e 44 246
e 45 46
e 45 51
e 45 55
e 45 66
e 45 71
e 45 95
e 45 105
e 45 113
e 45 126
e 45 132
e 45 135
e 45 152
e 45 153
e 45 179
e 45 208
e 45 233
e 45 235
e 45 236
e 45 239
e 45 244
e 45 247
e 45 249
e 46 50
e 46 57
e 46 58
e 46 60
e 46 77
e 46 93
e 46 94
e 46 102
e 46 107
e 46 121
e 46 123
e 46 130
e 46 143
e 46 147
e 46 149
e 46 150
e 46 200
e 46 215
e 47 48
e 47 55
e 47 69
e 47 92
e 47 124
e 47 125
e 47 130
e 47 139
e 47 147
e 47 149
e 47 151
e 47 158
e 47 159
e 47 160
e 47 169
e 47 199
e 47 202
e 47 219
e 47 221
e 47 226
e 47 242
e 48 66
e 48 82
e 48 90
e 48 96
e 48 100
e 48 108
e 48 109
e 48 111
e 48 128
e 48 136
e 48 145
e 48 151
e 48 160
e 48 165
e 48 183
e 48 211
e 49 52
e 49 58
e 49 74
e 49 80
e 49 85
e 49 86
e 49 91
e 49 102
e 49 124
e 49 126
e 49 136
e 49 137
e 49 142
e 49 147
e 49 150
e 49 180
e 49 209
e 49 213
e 49 214
e 49 224
e 49 227
e 50 53
e 50 75
e 50 76
e 50 78
e 50 81
e 50 85
e 50 86
e 50 112
e 50 132
e 50 134
e 50 140
e 50 165
e 50 177
e 50 181
e 50 184
e 50 185
e 50 193
e 50 195
e 50 196
e 50 207
e 50 209
e 50 233
e 50 240
e 51 74
e 51 83
e 51 85
e 51 86
e 51 88
e 51 100
e 51 104
e 51 105
e 51 129
e 51 132
e 51 133
e 51 134
e 51 149
e 51 152
e 51 153
e 51 156
e 51 160
e 51 162
e 51 167
e 51 169
e 51 173
e 51 180
e 51 185
e 51 222
e 51 242
e 52 54
e 52 69
e 52 82
e 52 98
e 52 118
e 52 140
e 52 156
e 52 164
e 52 167
e 52 178
e 52 180
e 52 190
e 52 201
e 52 202
e 52 217
e 52 237
e 52 240
e 52 245
e 53 59
e 53 68
e 53 82
e 53 84
e 53 89
e 53 106
e 53 107
e 53 126
e 53 127
e 53 134
e 53 141
e 53 156
e 53 168
e 53 175
e 53 180
e 53 185
e 53 206
e 53 220
e 53 234
e 53 247
e 54 58
e 54 61
e 54 76
e 54 80
e 54 107
e 54 125
e 54 126
e 54 129
e 54 131
e 54 165
e 54 190
e 54 199
e 54 204
e 54 212
e 54 224
e 55 64
e 55 72
e 55 91
e 55 94
e 55 107
e 55 109
e 55 114
e 55 116
e 55 124
e 55 135
e 55 177
e 55 185
e 55 187
e 55 190
e 55 192
e 55 194
e 55 202
e 55 228
e 55 230
e 55 236
e 55 242
e 56 57
e 56 64
e 56 74
e 56 77
e 56 78
e 56 80
e 56 88
e 56 103
e 56 104
e 56 118
e 56 129
e 56 131
e 56 142
e 56 143
e 56 147
e 56 165
e 56 173
e 56 184
e 56 212
e 56 221
e 56 225
e 56 242
e 56 246
e 57 62
e 57 63
e 57 71
e 57 82
e 57 85
e 57 92
e 57 99
e 57 118
e 57 119
e 57 130
e 57 141
e 57 154
e 57 170
e 57 174
e 57 179
e 57 192
e 57 211
e 57 221
e 57 230
e 57 235
e 57 236
e 57 237
e 57 243
e 58 59
e 58 60
e 58 79
e 58 84
e 58 124
e 58 126
e 58 128
e 58 141
e 58 150
e 58 151
e 58 182
e 58 187
e 58 204
e 58 219
e 58 222
e 58 248
e 59 61
e 59 67
e 59 90
e 59 100
e 59 121
e 59 135
e 59 151
e 59 177
e 59 183
e 59 190
e 59 203
e 59 209
e 59 211
e 59 212
e 59 224
e 59 237
e 59 240
e 59 245
e 60 76
e 60 79
e 60 88
e 60 92
e 60 106
e 60 113
e 60 122
e 60 126
e 60 146
e 60 148
e 60 162
e 60 182
e 60 191
e 60 197
e 60 207
e 60 220
e 60 228
e 60 230
e 60 237
e 61 65
e 61 89
e 61 95
e 61 115
e 61 118
e 61 133
e 61 137
e 61 163
e 61 166
e 61 170
e 61 200
e 61 205
e 61 217
e 62 63
e 62 120
e 62 139
e 62 143
e 62 146
e 62 174
e 62 180
e 62 194
e 62 200
e 62 202
e 62 207
e 62 215
e 62 231
e 62 232
e 62 234
e 62 236
e 63 69
e 63 72
e 63 75
e 63 81
e 63 83
e 63 84
e 63 91
e 63 94
e 63 99
e 63 106
e 63 110
e 63 111
e 63 118
e 63 134
e 63 149
e 63 155
e 63 156
e 63 161
e 63 169
e 63 197
e 63 203
e 63 228
e 63 233
e 64 75
e 64 77
e 64 81
e 64 91
e 64 94
e 64 98
e 64 100
e 64 107
e 64 110
e 64 124
e 64 134
e 64 139
e 64 156
e 64 161
e 64 165
e 64 168
e 64 170
e 64 174
e 64 180
e 64 200
e 64 210
e 64 217
e 64 226
e 64 235
e 64 238
e 64 243
e 64 248
e 64 249
e 65 73
e 65 79
e 65 90
e 65 94
e 65 112
e 65 122
e 65 134
e 65 157
e 65 159
e 65 165
e 65 166
e 65 170
e 65 194
e 65 206
e 65 215
e 65 216
e 65 230
e 65 238
e 65 241
e 66 67
e 66 86
e 66 91
e 66 92
e 66 93
e 66 94
e 66 95
e 66 99
e 66 107
e 66 108
e 66 111
e 66 117
e 66 120
e 66 134
e 66 152
e 66 172
e 66 194
e 66 202
e 66 222
e 67 76
e 67 77
e 67 85
e 67 94
e 67 113
e 67 117
e 67 119
e 67 131
e 67 153
e 67 166
e 67 172
e 67 174
e 67 175
e 67 191
e 67 208
e 67 218
e 67 228
e 67 231
e 67 240
e 67 248
e 68 72
e 68 90
e 68 92
e 68 93
e 68 98
e 68 102
e 68 106
e 68 107
e 68 110
e 68 134
e 68 138
e 68 143
e 68 146
e 68 158
e 68 172
e 68 175
e 68 184
e 68 222
e 68 234
e 68 237
e 68 249
e 69 74
e 69 77
e 69 86
e 69 93
e 69 101
e 69 107
e 69 109
e 69 120
e 69 126
e 69 140
e 69 149
e 69 151
e 69 153
e 69 159
e 69 162
e 69 178
e 69 180
e 69 187
e 69 213
e 69 222
e 69 228
e 69 247
e 70 80
e 70 83
e 70 90
e 70 97
e 70 102
e 70 127
e 70 150
e 70 158
e 70 160
e 70 173
e 70 182
e 70 195
e 70 197
e 70 202
e 70 203
e 70 204
e 70 206
e 70 212
e 70 230
e 70 231
e 70 237
e 70 242
e 71 82
e 71 87
e 71 88
e 71 91
e 71 95
e 71 109
e 71 120
e 71 122
e 71 124
e 71 136
e 71 138
e 71 149
e 71 152
e 71 158
e 71 167
e 71 178
e 71 183
e 71 201
e 71 209
e 72 95
e 72 107
e 72 123
e 72 124
e 72 129
e 72 136
e 72 152
e 72 166
e 72 168
e 72 172
e 72 178
e 72 181
e 72 192
e 72 195
e 72 200
e 72 204
e 72 222
e 72 238
e 72 239
e 72 241
e 72 245
e 73 76
e 73 84
e 73 86
e 73 90
e 73 94
e 73 96
e 73 102
e 73 127
e 73 130
e 73 132
e 73 142
e 73 145
e 73 155
e 73 159
e 73 190
e 73 191
e 73 194
e 73 200
e 73 201
e 73 213
e 73 215
e 73 249
e 74 84
e 74 88
e 74 97
e 74 101
e 74 102
e 74 105
e 74 106
e 74 118
e 74 124
e 74 132
e 74 142
e 74 146
e 74 177
e 74 181
e 74 183
e 74 206
e 74 210
e 74 215
e 74 221
e 74 225
e 74 237
e 75 99
e 75 101
e 75 110
e 75 132
e 75 137
e 75 161
e 75 162
e 75 173
e 75 203
e 75 207
e 75 217
e 75 222
e 75 243
e 76 105
e 76 109
e 76 126
e 76 128
e 76 133
e 76 141
e 76 162
e 76 166
e 76 175
e 76 186
e 76 200
e 76 205
e 76 222
e 76 228
e 76 230
e 76 231
e 76 241
e 77 82
e 77 85
e 77 95
e 77 109
e 77 117
e 77 131
e 77 135
e 77 142
e 77 150
e 77 163
e 77 170
e 77 187
e 77 190
e 77 196
e 77 208
e 77 219
e 78 98
e 78 114
e 78 116
e 78 124
e 78 127
e 78 136
e 78 164
e 78 171
e 78 177
e 78 178
e 78 184
e 78 210
e 78 225
e 79 88
e 79 90
e 79 103
e 79 132
e 79 135
e 79 136
e 79 142
e 79 155
e 79 161
e 79 170
e 79 171
e 79 184
e 79 185
e 79 189
e 79 219
e 79 222
e 79 231
e 79 247
e 80 94
e 80 100
e 80 104
e 80 107
e 80 127
e 80 133
e 80 144
e 80 145
e 80 146
e 80 169
e 80 172
e 80 175
e 80 185
e 80 188
e 80 197
e 80 212
e 80 240
e 80 243
e 81 84
e 81 89
e 81 92
e 81 102
e 81 109
e 81 113
e 81 124
e 81 132
e 81 169
e 81 176
e 81 177
e 81 178
e 81 180
e 81 214
e 81 216
e 82 85
e 82 89
e 82 114
e 82 119
e 82 120
e 82 127
e 82 143
e 82 147
e 82 152
e 82 160
e 82 175
e 82 212
e 82 226
e 83 88
e 83 102
e 83 108
e 83 117
e 83 123
e 83 124
e 83 133
e 83 140
e 83 141
e 83 144
e 83 152
e 83 156
e 83 158
e 83 163
e 83 170
e 83 181
e 83 190
e 83 213
e 83 219
e 83 232
e 83 242
e 83 247
e 84 97
e 84 105
e 84 107
e 84 125
e 84 132
e 84 144
e 84 145
e 84 148
e 84 159
e 84 169
e 84 177
e 84 214
e 84 219
e 84 222
e 84 240
e 84 241
e 84 248
e 85 89
e 85 98
e 85 102
e 85 112
e 85 113
e 85 116
e 85 136
e 85 147
e 85 159
e 85 169
e 85 200
e 85 211
e 85 219
e 85 220
e 85 238
e 85 240
e 85 242
e 85 247
e 86 92
e 86 100
e 86 108
e 86 115
e 86 117
e 86 159
e 86 160
e 86 169
e 86 176
e 86 189
e 86 200
e 86 201
e 86 205
e 86 248
e 87 88
e 87 111
e 87 112
e 87 113
e 87 151
e 87 180
e 87 203
e 87 215
e 87 230
e 87 232
e 87 235
e 87 237
e 87 238
e 87 242
e 87 243
e 88 112
e 88 130
e 88 131
e 88 132
e 88 144
e 88 160
e 88 170
e 88 177
e 88 220
e 88 223
e 88 241
e 88 246
e 89 112
e 89 123
e 89 139
e 89 145
e 89 147
e 89 155
e 89 156
e 89 165
e 89 168
e 89 212
e 89 213
e 89 223
e 89 233
e 89 240
e 90 107
e 90 123
e 90 142
e 90 157
e 90 162
e 90 164
e 90 178
e 90 202
e 90 214
e 90 239
e 91 116
e 91 145
e 91 150
e 91 180
e 91 191
e 91 192
e 91 214
e 91 221
e 91 233
e 91 234
e 91 242
e 91 245
e 91 247
e 92 94
e 92 106
e 92 110
e 92 121
e 92 128
e 92 143
e 92 151
e 92 153
e 92 154
e 92 156
e 92 187
e 92 193
e 92 199
e 92 210
e 93 98
e 93 102
e 93 107
e 93 127
e 93 154
e 93 166
e 93 173
e 93 199
e 93 206
e 93 219
e 93 231
e 93 232
e 94 106
e 94 117
e 94 119
e 94 122
e 94 126
e 94 128
e 94 142
e 94 154
e 94 159
e 94 167
e 94 171
e 94 203
e 94 224
e 94 237
e 94 246
e 95 99
e 95 114
e 95 116
e 95 132
e 95 133
e 95 181
e 95 198
e 95 207
e 95 219
e 95 223
e 95 234
e 95 245
e 96 156
e 96 169
e 96 171
e 96 180
e 96 222
e 96 234
e 96 244
e 96 248
e 97 126
e 97 137
e 97 138
e 97 145
e 97 162
e 97 163
e 97 165
e 97 193
e 97 201
e 97 208
e 97 237
e 97 243
e 98 108
e 98 124
e 98 127
e 98 134
e 98 141
e 98 149
e 98 160
e 98 210
e 98 217
e 98 239
e 99 105
e 99 119
e 99 128
e 99 133
e 99 160
e 99 162
e 99 166
e 99 168
e 99 170
e 99 171
e 99 184
e 99 206
e 99 215
e 99 216
e 99 223
e 99 229
e 99 231
e 99 236
e 99 245
e 100 112
e 100 115
e 100 119
e 100 136
e 100 137
e 100 139
e 100 143
e 100 146
e 100 196
e 100 220
e 100 221
e 100 222
e 101 116
e 101 119
e 101 149
e 101 151
e 101 155
e 101 190
e 101 201
e 101 205
e 101 207
e 101 210
e 101 219
e 101 229
e 101 234
e 101 236
e 101 245
e 102 125
e 102 131
e 102 133
e 102 136
e 102 157
e 102 158
e 102 160
e 102 165
e 102 170
e 102 195
e 102 197
e 102 236
e 102 243
e 102 244
e 102 249
e 103 110
e 103 112
e 103 116
e 103 118
e 103 144
e 103 146
e 103 155
e 103 186
e 103 202
e 103 205
e 103 229
e 103 230
e 103 236
e 103 248
e 104 106
e 104 116
e 104 123
e 104 138
e 104 157
e 104 162
e 104 170
e 104 185
e 104 193
e 104 218
e 104 221
e 104 223
e 104 227
e 104 235
e 105 115
e 105 117
e 105 118
e 105 146
e 105 169
e 105 215
e 105 241
e 106 116
e 106 121
e 106 125
e 106 136
e 106 140
e 106 142
e 106 149
e 106 160
e 106 168
e 106 178
e 106 180
e 106 182
e 106 186
e 106 198
e 106 208
e 106 219
e 106 225
e 106 240
e 106 241
e 107 131
e 107 137
e 107 168
e 107 177
e 107 198
e 107 206
e 107 212
e 107 227
e 107 238
e 108 109
e 108 113
e 108 129
e 108 150
e 108 152
e 108 158
e 108 196
e 108 199
e 108 237
e 109 119
e 109 123
e 109 129
e 109 137
e 109 142
e 109 145
e 109 146
e 109 150
e 109 156
e 109 158
e 109 172
e 109 181
e 109 184
e 109 185
e 109 189
e 109 215
e 109 222
e 110 114
e 110 128
e 110 149
e 110 153
e 110 163
e 110 167
e 110 168
e 110 176
e 110 178
e 110 191
e 110 202
e 110 212
e 110 230
e 110 235
e 110 247
e 111 135
e 111 189
e 111 192
e 111 195
e 111 203
e 111 217
e 111 219
e 111 229
e 111 234
e 111 239
e 112 149
e 112 166
e 112 171
e 112 192
e 112 200
e 112 202
e 112 207
e 112 209
e 112 213
e 112 221
e 112 231
e 112 245
e 113 123
e 113 142
e 113 159
e 113 160
e 113 173
e 113 179
e 113 183
e 113 184
e 113 196
e 113 216
e 113 217
e 113 224
e 113 231
e 113 232
e 113 235
e 114 132
e 114 133
e 114 152
e 114 159
e 114 182
e 114 183
e 114 185
e 114 190
e 114 227
e 114 236
e 115 118
e 115 130
e 115 141
e 115 142
e 115 149
e 115 153
e 115 162
e 115 167
e 115 174
e 115 178
e 115 212
e 115 215
e 115 234
e 115 241
e 115 242
e 115 245
e 115 248
e 116 136
e 116 144
e 116 147
e 116 155
e 116 178
e 116 194
e 116 202
e 116 205
e 116 232
e 116 239
e 117 189
e 117 204
e 117 211
e 117 220
e 117 224
e 117 231
e 117 238
e 117 243
e 118 125
e 118 128
e 118 141
e 118 160
e 118 164
e 118 165
e 118 168
e 118 175
e 118 194
e 118 202
e 118 213
e 118 214
e 118 219
e 118 247
e 119 125
e 119 131
e 119 181
e 119 187
e 119 193
e 119 243
e 120 123
e 120 130
e 120 137
e 120 148
e 120 156
e 120 169
e 120 176
e 120 203
e 120 206
e 120 207
e 120 218
e 120 222
e 120 236
e 120 238
e 120 246
e 121 124
e 121 127
e 121 131
e 121 133
e 121 144
e 121 159
e 121 160
e 121 183
e 121 200
e 121 224
e 121 236
e 121 243
e 121 244
e 121 249
e 122 124
e 122 158
e 122 166
e 122 175
e 122 180
e 122 201
e 122 209
e 122 218
e 122 226
e 122 232
e 123 134
e 123 145
e 123 146
e 123 155
e 123 194
e 123 197
e 123 202
e 123 211
e 123 220
e 123 225
e 123 242
e 124 137
e 124 153
e 124 163
e 124 167
e 124 180
e 124 199
e 124 208
e 124 224
e 124 225
e 124 236
e 124 237
e 125 131
e 125 150
e 125 151
e 125 175
e 125 176
e 125 183
e 125 195
e 125 203
e 125 223
e 125 230
e 125 236
e 125 244
e 125 246
e 126 150
e 126 160
e 126 198
e 126 209
e 126 210
e 126 227
e 126 242
e 127 133
e 127 137
e 127 138
e 127 147
e 127 150
e 127 166
e 127 170
e 127 193
e 127 204
e 127 211
e 127 223
e 127 234
e 127 240
e 127 249
e 128 132
e 128 133
e 128 134
e 128 157
e 128 166
e 128 184
e 128 191
e 128 199
e 128 219
e 129 130
e 129 142
e 129 168
e 129 170
e 129 179
e 129 182
e 129 186
e 129 191
e 129 203
e 129 204
e 129 225
e 129 235
e 129 237
e 129 247
e 130 133
e 130 143
e 130 152
e 130 159
e 130 173
e 130 177
e 130 178
e 130 184
e 130 197
e 130 203
e 130 234
e 130 242
e 131 177
e 131 201
e 131 247
e 132 133
e 132 143
e 132 178
e 132 202
e 132 205
e 132 221
e 132 222
e 132 228
e 132 241
e 133 144
e 133 150
e 133 157
e 133 159
e 133 160
e 133 161
e 133 167
e 133 180
e 133 182
e 133 190
e 133 205
e 133 224
e 133 227
e 134 136
e 134 145
e 134 146
e 134 150
e 134 158
e 134 160
e 134 163
e 134 177
e 134 184
e 134 190
e 134 199
e 134 221
e 134 223
e 134 228
e 135 154
e 135 161
e 135 171
e 135 182
e 135 185
e 135 186
e 135 194
e 135 195
e 135 196
e 135 216
e 135 222
e 135 239
e 135 241
e 135 245
e 136 159
e 136 172
e 136 178
e 136 183
e 136 184
e 136 191
e 136 192
e 136 197
e 136 202
e 136 206
e 136 224
e 136 235
e 136 241
e 136 243
e 136 248
e 137 142
e 137 151
e 137 152
e 137 171
e 137 177
e 137 178
e 137 183
e 137 208
e 137 249
e 138 144
e 138 177
e 138 185
e 138 189
e 138 202
e 138 203
e 138 209
e 138 237
e 138 245
e 139 143
e 139 144
e 139 154
e 139 176
e 139 197
e 139 214
e 139 240
e 139 241
e 140 141
e 140 192
e 140 197
e 140 213
e 141 150
e 141 155
e 141 166
e 141 169
e 141 178
e 141 186
e 141 192
e 141 201
e 141 211
e 141 218
e 141 219
e 141 228
e 141 239
e 142 147
e 142 152
e 142 153
e 142 197
e 142 205
e 142 206
e 142 217
e 142 222
e 142 232
e 142 241
e 142 246
e 143 145
e 143 149
e 143 150
e 143 153
e 143 162
e 143 166
e 143 173
e 143 178
e 143 185
e 143 189
e 143 206
e 143 210
e 143 213
e 143 247
e 144 146
e 144 151
e 144 157
e 144 162
e 144 177
e 144 181
e 144 214
e 144 220
e 144 221
e 144 222
e 144 229
e 144 236
e 144 239
e 144 244
e 145 166
e 145 169
e 145 183
e 145 196
e 145 203
e 145 209
e 145 215
e 145 227
e 145 242
e 145 243
e 146 152
e 146 155
e 146 159
e 146 163
e 146 169
e 146 173
e 146 176
e 146 188
e 146 196
e 146 202
e 146 224
e 146 245
e 146 246
e 146 248
e 147 179
e 147 189
e 147 194
e 147 208
e 147 220
e 147 235
e 147 238
e 147 247
e 148 152
e 148 153
e 148 173
e 148 184
e 148 190
e 148 207
e 148 208
e 148 228
e 149 166
e 149 179
e 149 201
e 149 202
e 149 203
e 149 216
e 149 221
e 149 225
e 149 226
e 149 228
e 149 230
e 149 233
e 149 235
e 150 155
e 150 179
e 150 189
e 150 195
e 150 207
e 150 208
e 150 209
e 150 211
e 150 237
e 151 160
e 151 162
e 151 175
e 151 180
e 151 184
e 151 191
e 151 193
e 151 199
e 151 207
e 151 212
e 151 215
e 151 233
e 152 162
e 152 167
e 152 179
e 152 180
e 152 220
e 152 230
e 152 239
e 152 243
e 152 246
e 153 154
e 153 156
e 153 172
e 153 176
e 153 202
e 153 222
e 153 229
e 153 230
e 153 233
e 154 169
e 154 170
e 154 189
e 154 200
e 154 209
e 154 211
e 154 217
e 154 230
e 154 231
e 154 239
e 155 176
e 155 185
e 155 221
e 155 223
e 155 231
e 155 232
e 156 161
e 156 170
e 156 187
e 156 188
e 156 211
e 156 233
e 156 236
e 156 238
e 156 242
e 157 163
e 157 167
e 157 191
e 157 196
e 157 246
e 158 164
e 158 169
e 158 179
e 158 190
e 158 191
e 158 215
e 158 219
e 158 220
e 158 222
e 158 223
e 158 226
e 158 231
e 158 237
e 158 246
e 158 248
e 159 183
e 159 222
e 159 229
e 160 176
e 160 178
e 160 187
e 160 193
e 160 196
e 160 203
e 160 210
e 160 228
e 160 229
e 160 242
e 160 245
e 161 163
e 161 168
e 161 178
e 161 198
e 161 227
e 161 245
e 162 173
e 162 183
e 162 189
e 162 191
e 162 198
e 162 201
e 162 209
e 162 223
e 162 234
e 163 172
e 163 174
e 163 186
e 163 190
e 163 220
e 164 175
e 164 188
e 164 189
e 164 207
e 164 228
e 164 237
e 164 245
e 164 249
e 165 172
e 165 175
e 165 181
e 165 186
e 165 189
e 165 196
e 165 203
e 165 211
e 165 216
e 165 217
e 165 228
e 165 244
e 166 185
e 166 201
e 167 169
e 167 175
e 167 187
e 167 189
e 167 209
e 167 214
e 168 178
e 168 185
e 168 208
e 168 212
e 169 171
e 169 182
e 169 185
e 169 194
e 169 208
e 169 218
e 169 232
e 169 237
e 170 172
e 170 177
e 170 178
e 170 201
e 170 204
e 170 210
e 170 224
e 170 235
e 170 236
e 170 238
e 170 239
e 171 172
e 171 186
e 171 188
e 171 192
e 171 200
e 171 204
e 171 234
e 171 235
e 171 240
e 171 243
e 172 186
e 172 192
e 172 201
e 172 237
e 172 243
e 172 247
e 173 174
e 173 177
e 173 184
e 173 185
e 173 191
e 173 225
e 174 180
e 174 191
e 174 192
e 174 199
e 174 211
e 174 238
e 174 243
e 174 248
e 175 183
e 175 188
e 175 201
e 175 208
e 175 212
e 175 213
e 175 234
e 176 177
e 176 209
e 176 216
e 176 227
e 176 231
e 176 233
e 177 192
e 177 208
e 177 213
e 177 219
e 177 234
e 177 240
e 177 245
e 178 180
e 178 240
e 178 241
e 178 243
e 179 181
e 179 188
e 179 199
e 179 201
e 179 223
e 179 224
e 179 230
e 179 231
e 179 241
e 180 228
e 180 237
e 181 184
e 181 185
e 181 188
e 181 197
e 181 202
e 181 225
e 181 234
e 181 235
e 181 240
e 181 245
e 182 197
e 182 198
e 182 209
e 182 218
e 182 227
e 182 231
e 182 234
e 183 233
e 184 202
e 184 219
e 184 237
e 184 247
e 185 192
e 185 193
e 185 201
e 185 207
e 185 212
e 185 220
e 185 221
e 185 232
e 185 235
e 186 189
e 186 191
e 186 216
e 186 225
e 186 232
e 186 234
e 186 241
e 187 190
e 187 197
e 187 209
e 187 217
e 187 219
e 188 192
e 188 194
e 188 197
e 188 198
e 188 200
e 188 203
e 188 210
e 188 213
e 188 232
e 188 233
e 188 243
e 189 211
e 189 212
e 189 213
e 189 215
e 189 240
e 190 194
e 190 240
e 190 247
e 190 249
e 191 196
e 191 202
e 191 205
e 191 215
e 191 243
e 191 244
e 191 249
e 192 206
e 192 207
e 192 216
e 193 206
e 193 217
e 193 219
e 193 220
e 193 223
e 193 230
e 193 234
e 193 235
e 193 238
e 193 248
e 194 202
e 194 224
e 194 226
e 194 229
e 195 204
e 195 208
e 195 226
e 195 232
e 196 203
e 196 207
e 196 214
e 196 218
e 196 249
e 197 201
e 197 210
e 197 218
e 197 224
e 197 225
e 197 235
e 197 242
e 197 246
e 198 223
e 198 229
e 198 241
e 198 243
e 199 206
e 199 207
e 199 212
e 199 224
e 200 202
e 200 214
e 200 215
e 200 216
e 200 224
e 200 233
e 200 238
e 200 239
e 200 246
e 200 249
e 201 203
e 201 236
e 201 242
e 201 249
e 202 210
e 202 212
e 202 218
e 202 221
e 202 225
e 202 234
e 202 236
e 202 238
e 202 245
e 202 249
e 203 205
e 203 227
e 203 232
e 203 243
e 203 246
e 204 215
e 204 227
e 204 245
e 204 249
e 205 208
e 205 209
e 205 215
e 205 222
e 205 236
e 205 248
e 206 233
e 206 237
e 206 243
e 207 208
e 207 226
e 207 234
e 207 235
e 207 244
e 207 249
e 208 212
e 208 220
e 208 222
e 208 227
e 208 237
e 208 239
e 208 246
e 209 221
e 209 229
e 209 243
e 210 219
e 210 221
e 210 229
e 210 237
e 210 246
e 211 216
e 211 225
e 211 229
e 211 243
e 212 227
e 212 237
e 212 239
e 213 215
e 213 231
e 213 248
e 214 223
e 214 234
e 214 246
e 215 220
e 215 221
e 215 228
e 215 241
e 215 242
e 216 226
e 216 232
e 216 242
e 216 243
e 217 234
e 217 241
e 218 234
e 219 229
e 219 230
e 219 249
e 220 245
e 221 230
e 221 231
e 221 234
e 221 239
e 221 244
e 221 247
e 222 246
e 223 226
e 223 230
e 223 231
e 223 240
e 224 229
e 224 236
e 225 235
e 226 238
e 226 244
e 226 248
e 227 228
e 227 229
e 228 235
e 228 246
e 229 235
e 230 242
e 230 245
e 232 238
e 232 245
e 233 249
e 235 245
e 236 240
e 236 247
e 238 249
e 240 245
e 240 248
e 242 247
e 243 247
e 244 249
e 246 247
